NAME: ../File/prFile/tspFile/tsp_file49.tsp
COMMENT: TSP file generated by Python
TYPE: TSP
DIMENSION: 30
EDGE_WEIGHT_TYPE: EUC_2D
NODE_COORD_SECTION
1 9 85
2 18 71
3 64 34
4 97 34
5 78 51
6 80 45
7 52 46
8 57 10
9 51 6
10 24 48
11 58 93
12 84 59
13 73 86
14 42 83
15 32 56
16 53 30
17 41 4
18 27 51
19 61 37
20 45 93
21 25 81
22 89 54
23 20 5
24 13 11
25 55 98
26 58 78
27 84 13
28 60 6
29 24 13
30 36 82
EOF
